100
128
16
11
11
30
57
49
29
34
6
2
17
7
15
12
51
16
46
64
37
52
36
24
62
23
2
15
21
27
60
53
11
31
20
16
15
22
60
28
9
24
19
50
16
36
35
38
59
34
13
9
12
23
64
22
63
60
34
32
11
10
28
44
64
55
38
28
31
34
38
13
23
20
40
23
32
17
13
32
27
10
37
14
26
13
46
32
38
29
19
26
13
3
30
35
2
28
48
35
39
40